problems/csplib-prob056/sonet-models/noch/O2/lingeling/model_8_1-s2ring15-solution000001.solution
language Essence 1.3

letting network be mset({}, {}, {}, {1, 2, 4, 9, 10}, {1, 3, 5, 6, 7}, {2, 3, 6, 8, 9})
$ Here is a simple "visualisation" for the value above.
$ 
$ 
$ 
$  1  2  4  9 10
$  1  3  5  6  7
$  2  3  6  8  9

